knapPI_6_1000_10000_356
n 1000
c 3124751
z 3124751
time 0.5
1,6072,6072,1
2,3079,3079,1
3,572,572,1
4,5288,5288,1
5,9190,9190,1
6,9311,9311,1
7,6838,6838,1
8,8510,8510,1
9,697,697,1
10,5029,5029,1
11,8869,8869,1
12,6348,6348,1
13,423,423,1
14,8475,8475,1
15,3908,3908,1
16,7113,7113,1
17,3774,3774,1
18,4447,4447,1
19,8201,8201,1
20,4934,4934,1
21,1403,1403,1
22,2206,2206,1
23,5756,5756,1
24,5028,5028,1
25,569,569,1
26,8692,8692,1
27,8226,8226,1
28,8418,8418,1
29,1071,1071,1
30,3115,3115,1
31,1672,1672,1
32,7183,7183,1
33,4262,4262,1
34,6200,6200,1
35,7192,7192,1
36,6425,6425,1
37,9012,9012,1
38,2815,2815,1
39,8671,8671,1
40,6309,6309,1
41,774,774,1
42,5580,5580,1
43,251,251,1
44,5301,5301,1
45,3258,3258,1
46,7618,7618,1
47,3175,3175,1
48,6886,6886,1
49,4958,4958,1
50,3246,3246,1
51,355,355,1
52,6179,6179,1
53,43,43,1
54,7689,7689,1
55,9808,9808,1
56,3078,3078,1
57,4639,4639,1
58,3439,3439,1
59,8015,8015,1
60,8675,8675,1
61,7428,7428,1
62,263,263,1
63,7656,7656,1
64,1706,1706,1
65,3880,3880,1
66,8243,8243,1
67,4489,4489,1
68,8605,8605,1
69,3640,3640,1
70,3796,3796,1
71,6364,6364,1
72,9648,9648,1
73,5602,5602,1
74,6810,6810,1
75,5702,5702,1
76,6526,6526,1
77,6058,6058,1
78,470,470,1
79,7770,7770,1
80,6217,6217,1
81,2923,2923,1
82,9435,9435,1
83,2222,2222,1
84,7834,7834,1
85,342,342,1
86,9548,9548,1
87,4781,4781,1
88,4517,4517,1
89,7598,7598,1
90,5858,5858,1
91,8598,8598,1
92,1587,1587,1
93,8777,8777,1
94,4532,4532,1
95,2632,2632,1
96,2358,2358,1
97,7293,7293,1
98,3392,3392,1
99,2640,2640,1
100,6742,6742,1
101,4984,4984,1
102,9406,9406,1
103,7218,7218,1
104,1721,1721,1
105,4720,4720,1
106,3078,3078,1
107,4854,4854,1
108,1859,1859,1
109,6664,6664,1
110,6746,6746,1
111,7124,7124,1
112,8182,8182,1
113,3948,3948,1
114,3906,3906,1
115,7647,7647,1
116,9181,9181,1
117,3134,3134,1
118,9897,9897,1
119,2011,2011,1
120,9669,9669,1
121,1251,1251,1
122,3897,3897,1
123,7553,7553,1
124,2615,2615,1
125,5846,5846,1
126,8408,8408,1
127,3711,3711,1
128,5393,5393,1
129,848,848,1
130,7716,7716,1
131,4122,4122,1
132,1638,1638,1
133,4223,4223,1
134,8533,8533,1
135,8659,8659,1
136,3918,3918,1
137,4503,4503,1
138,7168,7168,1
139,3853,3853,1
140,4409,4409,1
141,1336,1336,1
142,5711,5711,1
143,4690,4690,1
144,4663,4663,1
145,6150,6150,1
146,1156,1156,1
147,1436,1436,1
148,7399,7399,1
149,2230,2230,1
150,9666,9666,1
151,5671,5671,1
152,7173,7173,1
153,4567,4567,1
154,5374,5374,1
155,4735,4735,1
156,7515,7515,1
157,1947,1947,1
158,6010,6010,1
159,5817,5817,1
160,4197,4197,1
161,8788,8788,1
162,3364,3364,1
163,8515,8515,1
164,3927,3927,1
165,6140,6140,1
166,4394,4394,1
167,7663,7663,1
168,4585,4585,1
169,1465,1465,1
170,20,20,1
171,9183,9183,1
172,411,411,1
173,1045,1045,1
174,2018,2018,1
175,9370,9370,1
176,7560,7560,1
177,785,785,1
178,9985,9985,1
179,2719,2719,1
180,6572,6572,1
181,7965,7965,1
182,4619,4619,1
183,6901,6901,1
184,8333,8333,1
185,5046,5046,1
186,2601,2601,1
187,3301,3301,1
188,3765,3765,1
189,4547,4547,1
190,3912,3912,1
191,9758,9758,1
192,4153,4153,1
193,3762,3762,1
194,5288,5288,1
195,6572,6572,1
196,6274,6274,1
197,7080,7080,1
198,4171,4171,1
199,9243,9243,1
200,2667,2667,1
201,3481,3481,1
202,8446,8446,1
203,3702,3702,1
204,1950,1950,1
205,4985,4985,1
206,2541,2541,1
207,9368,9368,1
208,9987,9987,1
209,8284,8284,1
210,7384,7384,1
211,3616,3616,1
212,8890,8890,1
213,5228,5228,1
214,6564,6564,1
215,2948,2948,1
216,987,987,1
217,9079,9079,1
218,7916,7916,1
219,8364,8364,1
220,5100,5100,1
221,1607,1607,1
222,4858,4858,1
223,9803,9803,1
224,3830,3830,1
225,7013,7013,1
226,2364,2364,1
227,3713,3713,1
228,9737,9737,1
229,5857,5857,1
230,7609,7609,1
231,6483,6483,1
232,8312,8312,1
233,3915,3915,1
234,9094,9094,1
235,2260,2260,1
236,85,85,1
237,6840,6840,1
238,842,842,1
239,3381,3381,1
240,4586,4586,1
241,551,551,1
242,9032,9032,1
243,2962,2962,1
244,4787,4787,1
245,8819,8819,1
246,4924,4924,1
247,9723,9723,1
248,6019,6019,1
249,505,505,1
250,2926,2926,1
251,1818,1818,1
252,4440,4440,1
253,9651,9651,1
254,2489,2489,1
255,4579,4579,1
256,6214,6214,1
257,7951,7951,1
258,6414,6414,1
259,6312,6312,1
260,5625,5625,1
261,1273,1273,1
262,4256,4256,1
263,6104,6104,1
264,3072,3072,1
265,4308,4308,1
266,9109,9109,1
267,3648,3648,1
268,2438,2438,1
269,6245,6245,1
270,1677,1677,1
271,2089,2089,1
272,9853,9853,1
273,5583,5583,1
274,576,576,1
275,9720,9720,1
276,443,443,1
277,3295,3295,1
278,1847,1847,1
279,575,575,1
280,4660,4660,1
281,9513,9513,1
282,9546,9546,1
283,901,901,1
284,7447,7447,1
285,6426,6426,1
286,128,128,1
287,1630,1630,1
288,3123,3123,1
289,135,135,1
290,1040,1040,1
291,8080,8080,1
292,4215,4215,1
293,2720,2720,1
294,2509,2509,1
295,5926,5926,1
296,599,599,1
297,6130,6130,1
298,3445,3445,1
299,8505,8505,1
300,4524,4524,1
301,3622,3622,1
302,4595,4595,1
303,9101,9101,1
304,311,311,1
305,9594,9594,1
306,3681,3681,1
307,9297,9297,1
308,3318,3318,1
309,5134,5134,1
310,8477,8477,1
311,8013,8013,1
312,933,933,1
313,207,207,1
314,7238,7238,1
315,9529,9529,1
316,5692,5692,1
317,9878,9878,1
318,6086,6086,1
319,8584,8584,1
320,9448,9448,1
321,3694,3694,1
322,2073,2073,1
323,4084,4084,1
324,6040,6040,1
325,7461,7461,1
326,2720,2720,1
327,8640,8640,1
328,6276,6276,1
329,4617,4617,1
330,2587,2587,1
331,9726,9726,1
332,7866,7866,1
333,472,472,1
334,9169,9169,1
335,2698,2698,1
336,1322,1322,1
337,3563,3563,1
338,2105,2105,1
339,10,10,1
340,5108,5108,1
341,2090,2090,1
342,3959,3959,1
343,1207,1207,1
344,3172,3172,1
345,419,419,1
346,8044,8044,1
347,5457,5457,1
348,6255,6255,1
349,2621,2621,1
350,3614,3614,1
351,5189,5189,1
352,7800,7800,1
353,5626,5626,1
354,4587,4587,1
355,3380,3380,1
356,278,278,1
357,3986,3986,1
358,6453,6453,1
359,5387,5387,1
360,5434,5434,1
361,7675,7675,1
362,3004,3004,1
363,1984,1984,1
364,538,538,1
365,7731,7731,1
366,5919,5919,1
367,2887,2887,1
368,1849,1849,1
369,4693,4693,1
370,3097,3097,1
371,1797,1797,1
372,1511,1511,1
373,2638,2638,1
374,286,286,1
375,6057,6057,1
376,9391,9391,1
377,434,434,1
378,8178,8178,1
379,4178,4178,1
380,7060,7060,1
381,2650,2650,1
382,102,102,1
383,2445,2445,1
384,5680,5680,1
385,3836,3836,1
386,536,536,1
387,479,479,1
388,7221,7221,1
389,3386,3386,1
390,8699,8699,1
391,8109,8109,1
392,5969,5969,1
393,8302,8302,1
394,7983,7983,1
395,3903,3903,1
396,5152,5152,1
397,5294,5294,1
398,7450,7450,1
399,9503,9503,1
400,181,181,1
401,1670,1670,1
402,5351,5351,1
403,4454,4454,1
404,9990,9990,1
405,8306,8306,1
406,11,11,1
407,3685,3685,1
408,7076,7076,1
409,5175,5175,1
410,6819,6819,1
411,7071,7071,1
412,3202,3202,1
413,9546,9546,1
414,9036,9036,1
415,4681,4681,1
416,1271,1271,1
417,2344,2344,1
418,6260,6260,1
419,6259,6259,1
420,1118,1118,1
421,1236,1236,1
422,1800,1800,1
423,7601,7601,1
424,2676,2676,1
425,5232,5232,1
426,6852,6852,1
427,9754,9754,1
428,4761,4761,1
429,8240,8240,1
430,4728,4728,1
431,2384,2384,1
432,4281,4281,1
433,3078,3078,1
434,4240,4240,1
435,7706,7706,1
436,2405,2405,1
437,4710,4710,1
438,1472,1472,1
439,3464,3464,1
440,4188,4188,1
441,6793,6793,1
442,7760,7760,1
443,7784,7784,1
444,5083,5083,1
445,803,803,1
446,9011,9011,1
447,8170,8170,1
448,7367,7367,1
449,5339,5339,1
450,8066,8066,1
451,3933,3933,1
452,590,590,1
453,4216,4216,1
454,6741,6741,1
455,2293,2293,1
456,9534,9534,1
457,7135,7135,1
458,6815,6815,1
459,1614,1614,1
460,7647,7647,1
461,1973,1973,1
462,5751,5751,1
463,6347,6347,1
464,5030,5030,1
465,3841,3841,1
466,269,269,1
467,3264,3264,1
468,9049,9049,1
469,9843,9843,1
470,8418,8418,1
471,1149,1149,1
472,7383,7383,1
473,1594,1594,1
474,2932,2932,1
475,6704,6704,1
476,4740,4740,1
477,4309,4309,1
478,8290,8290,1
479,8106,8106,1
480,7876,7876,1
481,2294,2294,1
482,8628,8628,1
483,9310,9310,1
484,170,170,1
485,204,204,1
486,4211,4211,1
487,5153,5153,1
488,86,86,1
489,3190,3190,1
490,8584,8584,1
491,4629,4629,1
492,8173,8173,1
493,2654,2654,1
494,7562,7562,1
495,8934,8934,1
496,685,685,1
497,7192,7192,1
498,606,606,1
499,7351,7351,1
500,5604,5604,1
501,3969,3969,1
502,4041,4041,1
503,9995,9995,1
504,8093,8093,1
505,930,930,1
506,4543,4543,1
507,7413,7413,1
508,9748,9748,1
509,3299,3299,1
510,9478,9478,1
511,8049,8049,1
512,2552,2552,1
513,4704,4704,1
514,213,213,1
515,6805,6805,1
516,7488,7488,1
517,5393,5393,1
518,9270,9270,1
519,4796,4796,1
520,5928,5928,1
521,1716,1716,1
522,5105,5105,1
523,995,995,1
524,2332,2332,1
525,4074,4074,1
526,4802,4802,1
527,65,65,1
528,4227,4227,1
529,9890,9890,1
530,4560,4560,1
531,7750,7750,1
532,6461,6461,1
533,3479,3479,1
534,5864,5864,1
535,9831,9831,1
536,4339,4339,1
537,8819,8819,1
538,4755,4755,1
539,8973,8973,1
540,2171,2171,1
541,8910,8910,1
542,6418,6418,1
543,4582,4582,1
544,3891,3891,1
545,5787,5787,1
546,6922,6922,1
547,5608,5608,1
548,7537,7537,1
549,9832,9832,1
550,8448,8448,1
551,6071,6071,1
552,4347,4347,1
553,859,859,1
554,2857,2857,1
555,1945,1945,1
556,8139,8139,1
557,9575,9575,1
558,805,805,1
559,9531,9531,1
560,2251,2251,1
561,4063,4063,1
562,6533,6533,1
563,3633,3633,1
564,4914,4914,1
565,4410,4410,1
566,4552,4552,1
567,9330,9330,1
568,2847,2847,1
569,7206,7206,1
570,5775,5775,1
571,3376,3376,1
572,3095,3095,1
573,9731,9731,1
574,4882,4882,1
575,6450,6450,1
576,3775,3775,1
577,2221,2221,1
578,7625,7625,1
579,5163,5163,1
580,7998,7998,1
581,3478,3478,1
582,628,628,1
583,862,862,1
584,679,679,1
585,8058,8058,1
586,4163,4163,1
587,7726,7726,1
588,361,361,1
589,4379,4379,1
590,439,439,1
591,3252,3252,1
592,7505,7505,1
593,984,984,1
594,8046,8046,1
595,9687,9687,1
596,4362,4362,1
597,9208,9208,1
598,578,578,1
599,2687,2687,1
600,4866,4866,1
601,5868,5868,1
602,119,119,1
603,5730,5730,1
604,59,59,1
605,6988,6988,1
606,9556,9556,1
607,3116,3116,1
608,7791,7791,1
609,39,39,1
610,5390,5390,1
611,379,379,1
612,622,622,1
613,9571,9571,1
614,1378,1378,1
615,1313,1313,1
616,9547,9547,1
617,29,29,1
618,1792,1792,1
619,9481,9481,1
620,8097,8097,1
621,4414,4414,1
622,2411,2411,1
623,1933,1933,1
624,7145,7145,1
625,8053,8053,1
626,3204,3204,1
627,8009,8009,1
628,8025,8025,1
629,8794,8794,1
630,5001,5001,1
631,3861,3861,1
632,4485,4485,1
633,2226,2226,1
634,3232,3232,1
635,1119,1119,1
636,8493,8493,1
637,1163,1163,1
638,3845,3845,1
639,1322,1322,1
640,3689,3689,1
641,8026,8026,1
642,7946,7946,1
643,1925,1925,1
644,6226,6226,1
645,5084,5084,1
646,9016,9016,1
647,7674,7674,1
648,5612,5612,1
649,5419,5419,1
650,1237,1237,1
651,8862,8862,1
652,5801,5801,1
653,6274,6274,1
654,4842,4842,1
655,6967,6967,1
656,3976,3976,1
657,2361,2361,1
658,1402,1402,1
659,9030,9030,1
660,3291,3291,1
661,9455,9455,1
662,6581,6581,1
663,7967,7967,1
664,7805,7805,1
665,911,911,1
666,4567,4567,1
667,8953,8953,1
668,4063,4063,1
669,3333,3333,1
670,6575,6575,1
671,9049,9049,1
672,9646,9646,1
673,5888,5888,1
674,9462,9462,1
675,3436,3436,1
676,6314,6314,1
677,4000,4000,1
678,2425,2425,1
679,8063,8063,1
680,1808,1808,1
681,1246,1246,1
682,9218,9218,1
683,7701,7701,1
684,9718,9718,1
685,7406,7406,1
686,5357,5357,1
687,224,224,1
688,5374,5374,1
689,5553,5553,1
690,3254,3254,1
691,2568,2568,1
692,2870,2870,1
693,1472,1472,1
694,9168,9168,1
695,2239,2239,1
696,1329,1329,1
697,9236,9236,1
698,3817,3817,1
699,9495,9495,1
700,6372,6372,1
701,5804,5804,1
702,1222,1222,1
703,9792,9792,1
704,3285,3285,1
705,5293,5293,1
706,8159,8159,1
707,451,451,1
708,4355,4355,1
709,5453,5453,1
710,7364,7364,1
711,2169,2169,1
712,3917,3917,1
713,8732,8732,1
714,8462,8462,1
715,5081,5081,1
716,5749,5749,1
717,7477,7477,1
718,904,904,1
719,6112,6112,1
720,2700,2700,1
721,5859,5859,1
722,3200,3200,1
723,5528,5528,1
724,195,195,1
725,8739,8739,1
726,8873,8873,1
727,3291,3291,1
728,404,404,1
729,6947,6947,1
730,175,175,1
731,1645,1645,1
732,4707,4707,1
733,440,440,1
734,6187,6187,1
735,542,542,1
736,1135,1135,1
737,3885,3885,1
738,6616,6616,1
739,8034,8034,1
740,955,955,1
741,8172,8172,1
742,291,291,1
743,5768,5768,1
744,1714,1714,1
745,9126,9126,1
746,9793,9793,1
747,9670,9670,1
748,2121,2121,1
749,3047,3047,1
750,4106,4106,1
751,1997,1997,1
752,1022,1022,1
753,2038,2038,1
754,7903,7903,1
755,7132,7132,1
756,1428,1428,1
757,1476,1476,1
758,4820,4820,1
759,8897,8897,1
760,1412,1412,1
761,9910,9910,1
762,8177,8177,1
763,3133,3133,1
764,9857,9857,1
765,2319,2319,1
766,1131,1131,1
767,3280,3280,1
768,1454,1454,1
769,435,435,1
770,2227,2227,1
771,2863,2863,1
772,9604,9604,1
773,3741,3741,1
774,5400,5400,1
775,3698,3698,1
776,2768,2768,1
777,7319,7319,1
778,4847,4847,1
779,9806,9806,1
780,3765,3765,1
781,3097,3097,1
782,8361,8361,1
783,8291,8291,1
784,6580,6580,1
785,5723,5723,1
786,2606,2606,1
787,1246,1246,1
788,6335,6335,1
789,8301,8301,1
790,6009,6009,1
791,8603,8603,1
792,3911,3911,1
793,4196,4196,1
794,8683,8683,1
795,8714,8714,1
796,5598,5598,1
797,3794,3794,1
798,6039,6039,1
799,7718,7718,1
800,9560,9560,1
801,6021,6021,1
802,28,28,1
803,5088,5088,1
804,6916,6916,1
805,1247,1247,1
806,7953,7953,1
807,8771,8771,1
808,984,984,1
809,3702,3702,1
810,3409,3409,1
811,4530,4530,1
812,9859,9859,1
813,1134,1134,1
814,3800,3800,1
815,7569,7569,1
816,18,18,1
817,2845,2845,1
818,4711,4711,1
819,5736,5736,1
820,2328,2328,1
821,4630,4630,1
822,2936,2936,1
823,3952,3952,1
824,3191,3191,1
825,6604,6604,1
826,5674,5674,1
827,1891,1891,1
828,447,447,1
829,4083,4083,1
830,7370,7370,1
831,2712,2712,1
832,890,890,1
833,5204,5204,1
834,5161,5161,1
835,6172,6172,1
836,5499,5499,1
837,8801,8801,1
838,6758,6758,1
839,9748,9748,1
840,9531,9531,1
841,5325,5325,1
842,9699,9699,1
843,6703,6703,1
844,8954,8954,1
845,6280,6280,1
846,869,869,1
847,4994,4994,1
848,7449,7449,1
849,9060,9060,1
850,2831,2831,1
851,886,886,1
852,4235,4235,1
853,6125,6125,1
854,3953,3953,1
855,4825,4825,1
856,8817,8817,1
857,319,319,1
858,6077,6077,1
859,237,237,1
860,9571,9571,1
861,7383,7383,1
862,5347,5347,1
863,8228,8228,1
864,7800,7800,1
865,9306,9306,1
866,4157,4157,1
867,9602,9602,1
868,749,749,1
869,3758,3758,1
870,4126,4126,1
871,2329,2329,1
872,8572,8572,1
873,4407,4407,1
874,7354,7354,1
875,5220,5220,1
876,6266,6266,1
877,7513,7513,1
878,786,786,1
879,3979,3979,1
880,3984,3984,1
881,4922,4922,1
882,873,873,1
883,2940,2940,1
884,4573,4573,1
885,4075,4075,1
886,9392,9392,1
887,4105,4105,1
888,4274,4274,1
889,8731,8731,1
890,4300,4300,1
891,4139,4139,1
892,9569,9569,1
893,8968,8968,1
894,3622,3622,1
895,1327,1327,1
896,3793,3793,1
897,8544,8544,1
898,3531,3531,1
899,6186,6186,1
900,7048,7048,1
901,474,474,1
902,2083,2083,1
903,4226,4226,1
904,6003,6003,1
905,5603,5603,1
906,1996,1996,1
907,8738,8738,1
908,7643,7643,1
909,3,3,1
910,2937,2937,1
911,3138,3138,1
912,9386,9386,1
913,6583,6583,1
914,6456,6456,1
915,6663,6663,1
916,9796,9796,1
917,2873,2873,1
918,8020,8020,1
919,4849,4849,1
920,285,285,1
921,7884,7884,1
922,5246,5246,1
923,4872,4872,1
924,6619,6619,1
925,8604,8604,1
926,5652,5652,1
927,7346,7346,1
928,2130,2130,1
929,4496,4496,1
930,7940,7940,1
931,5435,5435,1
932,1926,1926,1
933,4587,4587,1
934,6212,6212,1
935,4437,4437,1
936,7662,7662,1
937,2402,2402,1
938,7844,7844,1
939,651,651,1
940,4651,4651,1
941,6543,6543,1
942,5559,5559,1
943,6999,6999,1
944,9912,9912,1
945,2735,2735,1
946,4875,4875,1
947,8526,8526,1
948,5072,5072,1
949,2853,2853,1
950,4802,4802,1
951,3603,3603,1
952,7921,7921,1
953,4292,4292,1
954,3667,3667,1
955,2860,2860,1
956,8300,8300,1
957,9910,9910,1
958,8162,8162,1
959,6401,6401,1
960,9314,9314,1
961,6104,6104,1
962,9311,9311,1
963,4433,4433,1
964,6114,6114,1
965,7863,7863,1
966,8495,8495,1
967,175,175,1
968,5371,5371,1
969,3221,3221,1
970,2455,2455,1
971,5683,5683,1
972,8056,8056,1
973,9029,9029,1
974,9249,9249,1
975,5522,5522,1
976,2665,2665,1
977,4010,4010,1
978,3113,3113,1
979,4986,4986,1
980,470,470,1
981,200,200,1
982,9727,9727,1
983,3232,3232,1
984,1501,1501,1
985,6340,6340,1
986,5476,5476,1
987,582,582,1
988,2804,2804,1
989,4813,4813,1
990,9199,9199,1
991,4234,4234,1
992,9397,9397,1
993,1188,1188,1
994,3824,3824,1
995,9472,9472,1
996,9445,9445,1
997,8468,8468,1
998,6269,6269,1
999,5981,5981,1
1000,4268,4268,1
